p cnf 963 2783
-1 2 0
1 3 0
-4 -5 0
-6 -7 -8 0
-6 7 8 0
-7 -9 -10 0
-7 9 10 0
-10 -11 -12 0
-10 11 12 0
-11 -13 0
-12 14 0
-12 15 0
-8 16 17 0
-16 18 19 0
-18 20 0
-18 21 0
-19 21 0
-19 22 0
-5 -23 0
-17 20 0
-17 22 0
-24 -25 0
-25 -26 -27 0
-25 26 27 0
-26 -28 -29 0
-26 28 29 0
-29 -30 -31 0
-29 30 31 0
-30 -32 0
-31 11 0
-31 12 0
-27 33 34 0
-33 35 36 0
-35 10 0
-35 9 0
-36 10 0
-36 8 0
-34 8 0
-34 9 0
-37 -38 0
-38 -39 -40 0
-38 39 40 0
-39 -41 -42 0
-39 41 42 0
-42 -43 -44 0
-42 43 44 0
-43 -45 0
-44 30 0
-44 31 0
-46 -47 48 0
-46 47 49 0
-40 50 51 0
-50 52 53 0
-52 29 0
-52 28 0
-53 29 0
-53 27 0
-51 27 0
-51 28 0
-54 -55 0
-55 -56 -57 0
-55 56 57 0
-56 -58 -59 0
-56 58 59 0
-59 -60 -61 0
-59 60 61 0
-60 -62 0
-47 63 0
-47 64 0
-61 43 0
-61 44 0
-57 65 66 0
-65 67 68 0
-67 42 0
-67 41 0
-68 42 0
-68 40 0
-66 40 0
-66 41 0
-69 -70 71 0
-69 70 72 0
-70 73 0
-70 74 0
-73 75 0
-73 76 0
-63 77 0
-63 78 0
-75 79 0
-75 80 0
-79 81 0
-79 82 0
-81 83 0
-81 84 0
-83 85 0
-83 86 0
-85 87 0
-85 88 0
-87 89 0
-89 90 0
-90 -91 -92 0
-90 91 92 0
-92 -93 0
-93 -94 0
-77 95 0
-77 96 0
-88 97 0
-97 -98 -99 0
-97 98 99 0
-98 -100 -101 0
-98 100 101 0
-101 -102 -103 0
-101 102 103 0
-102 -104 0
-103 93 0
-99 92 0
-99 91 0
-86 105 0
-95 106 0
-95 107 0
-105 -108 -109 0
-105 108 109 0
-108 -110 -111 0
-108 110 111 0
-111 -112 -113 0
-111 112 113 0
-112 -114 0
-113 102 0
-113 103 0
-109 115 116 0
-115 117 118 0
-117 101 0
-117 100 0
-118 101 0
-118 99 0
-106 119 0
-106 120 0
-116 99 0
-116 100 0
-84 121 0
-121 -122 -123 0
-121 122 123 0
-122 -20 -124 0
-122 20 124 0
-124 -125 -126 0
-124 125 126 0
-125 -127 0
-126 112 0
-126 113 0
-123 128 129 0
-128 130 131 0
-119 132 0
-119 133 0
-130 111 0
-130 110 0
-131 111 0
-131 109 0
-129 109 0
-129 110 0
-82 134 0
-134 -135 -136 0
-134 135 136 0
-135 -9 -137 0
-135 9 137 0
-137 -138 -139 0
-137 138 139 0
-138 -140 0
-139 125 0
-139 126 0
-1 -141 0
-132 142 0
-132 143 0
-136 144 145 0
-144 146 147 0
-146 124 0
-146 20 0
-147 124 0
-147 123 0
-145 123 0
-145 20 0
-80 148 0
-148 -149 -150 0
-148 149 150 0
-149 -28 -151 0
-149 28 151 0
-151 -152 -153 0
-151 152 153 0
-152 -154 0
-142 -91 0
-153 138 0
-153 139 0
-150 155 156 0
-155 157 158 0
-157 137 0
-157 9 0
-158 137 0
-158 136 0
-156 136 0
-156 9 0
-76 159 0
-159 -160 -161 0
-159 160 161 0
-160 -41 -162 0
-160 41 162 0
-162 -163 -164 0
-162 163 164 0
-163 -165 0
-164 152 0
-164 153 0
-161 166 167 0
-166 168 169 0
-168 151 0
-168 28 0
-169 151 0
-169 150 0
-167 150 0
-167 28 0
-74 170 0
-143 -100 0
-170 -171 -172 0
-170 171 172 0
-171 -58 -173 0
-171 58 173 0
-173 -174 -175 0
-173 174 175 0
-174 -176 0
-175 163 0
-175 164 0
-172 177 178 0
-177 179 180 0
-179 162 0
-179 41 0
-180 162 0
-180 161 0
-178 161 0
-178 41 0
-71 -181 182 0
-71 181 183 0
-181 -184 0
-182 -185 186 0
-182 185 187 0
-185 -188 0
-186 -189 190 0
-186 189 191 0
-189 192 0
-189 193 0
-192 194 0
-192 195 0
-194 196 0
-194 197 0
-196 198 0
-196 199 0
-133 -110 0
-198 200 0
-198 201 0
-200 202 0
-200 203 0
-202 204 0
-202 205 0
-204 -206 0
-205 -207 0
-203 -208 0
-201 -209 0
-199 -13 0
-197 -32 0
-195 -45 0
-193 -62 0
-190 -210 211 0
-190 210 212 0
-210 -213 0
-213 214 0
-214 -188 -215 0
-214 188 215 0
-215 -216 0
-216 -217 0
-211 -218 219 0
-211 218 220 0
-218 221 0
-120 -20 0
-221 -222 0
-222 -223 0
-219 -224 225 0
-219 224 226 0
-224 -227 0
-227 228 0
-228 -184 -221 0
-228 184 221 0
-225 -229 230 0
-225 229 226 0
-229 231 0
-229 232 0
-231 233 0
-231 234 0
-233 235 0
-233 236 0
-235 237 0
-235 238 0
-237 239 0
-237 240 0
-239 241 0
-239 242 0
-241 243 0
-241 244 0
-243 -245 0
-245 246 0
-246 -206 -247 0
-246 206 247 0
-247 -248 0
-248 -249 0
-107 -9 0
-244 -250 0
-250 -251 -252 0
-250 251 252 0
-251 -207 -253 0
-251 207 253 0
-253 -254 -255 0
-253 254 255 0
-254 -256 0
-255 248 0
-252 247 0
-252 206 0
-242 -257 0
-141 -258 0
-257 -259 -260 0
-257 259 260 0
-259 -208 -261 0
-259 208 261 0
-261 -262 -263 0
-261 262 263 0
-262 -264 0
-263 254 0
-263 255 0
-260 265 266 0
-265 267 268 0
-267 253 0
-267 207 0
-268 253 0
-268 252 0
-96 -28 0
-266 252 0
-266 207 0
-240 -269 0
-269 -270 -271 0
-269 270 271 0
-270 -209 -272 0
-270 209 272 0
-272 -273 -274 0
-272 273 274 0
-273 -275 0
-274 262 0
-274 263 0
-271 276 277 0
-276 278 279 0
-278 261 0
-278 208 0
-279 261 0
-279 260 0
-277 260 0
-277 208 0
-238 -280 0
-280 -281 -282 0
-280 281 282 0
-281 -13 -283 0
-281 13 283 0
-283 -284 -285 0
-283 284 285 0
-284 -286 0
-285 273 0
-285 274 0
-78 -41 0
-282 287 288 0
-287 289 290 0
-289 272 0
-289 209 0
-290 272 0
-290 271 0
-288 271 0
-288 209 0
-236 -291 0
-291 -292 -293 0
-291 292 293 0
-292 -32 -294 0
-292 32 294 0
-294 -295 -296 0
-294 295 296 0
-295 -297 0
-296 284 0
-296 285 0
-293 298 299 0
-298 300 301 0
-300 13 0
-300 283 0
-301 283 0
-301 282 0
-299 13 0
-299 282 0
-234 -302 0
-302 -303 -304 0
-302 303 304 0
-303 -45 -305 0
-303 45 305 0
-64 -58 0
-305 -306 -307 0
-305 306 307 0
-306 -308 0
-307 295 0
-307 296 0
-304 309 310 0
-309 311 312 0
-311 32 0
-311 294 0
-312 294 0
-312 293 0
-310 32 0
-310 293 0
-232 -313 0
-313 -314 -315 0
-313 314 315 0
-314 -62 -316 0
-314 62 316 0
-316 -317 -318 0
-316 317 318 0
-317 -319 0
-318 306 0
-318 307 0
-315 320 321 0
-320 322 323 0
-322 45 0
-322 305 0
-323 305 0
-323 304 0
-48 -324 325 0
-48 324 326 0
-321 45 0
-321 304 0
-230 327 328 0
-327 329 0
-327 330 0
-329 331 0
-329 332 0
-331 333 0
-331 334 0
-333 335 0
-333 336 0
-335 337 0
-335 338 0
-337 339 0
-337 340 0
-339 341 0
-339 342 0
-341 343 0
-324 -344 0
-343 345 0
-345 -206 -346 0
-345 206 346 0
-346 -347 0
-347 -348 0
-342 349 0
-349 -350 -351 0
-349 350 351 0
-350 -207 -352 0
-350 207 352 0
-352 -353 -354 0
-352 353 354 0
-353 -355 0
-344 356 0
-354 347 0
-351 346 0
-351 206 0
-340 357 0
-357 -358 -359 0
-357 358 359 0
-358 -208 -360 0
-358 208 360 0
-360 -361 -362 0
-360 361 362 0
-361 -363 0
-362 353 0
-362 354 0
-258 -364 0
-356 -141 -188 0
-356 141 188 0
-359 365 366 0
-365 367 368 0
-367 352 0
-367 207 0
-368 352 0
-368 351 0
-366 351 0
-366 207 0
-338 369 0
-369 -370 -371 0
-369 370 371 0
-370 -209 -372 0
-370 209 372 0
-372 -373 -374 0
-372 373 374 0
-373 -375 0
-188 -376 0
-374 361 0
-374 362 0
-371 377 378 0
-377 379 380 0
-379 360 0
-379 208 0
-380 360 0
-380 359 0
-378 359 0
-378 208 0
-336 381 0
-381 -382 -383 0
-381 382 383 0
-382 -13 -384 0
-382 13 384 0
-376 -385 0
-384 -386 -387 0
-384 386 387 0
-386 -388 0
-387 373 0
-387 374 0
-383 389 390 0
-389 391 392 0
-391 372 0
-391 209 0
-392 372 0
-392 371 0
-390 371 0
-390 209 0
-334 393 0
-393 -394 -395 0
-393 394 395 0
-394 -32 -396 0
-394 32 396 0
-396 -397 -398 0
-396 397 398 0
-397 -399 0
-398 386 0
-398 387 0
-395 400 401 0
-400 402 403 0
-402 13 0
-402 384 0
-403 384 0
-403 383 0
-325 -404 405 0
-325 404 406 0
-401 13 0
-401 383 0
-332 407 0
-407 -408 -409 0
-407 408 409 0
-408 -45 -410 0
-408 45 410 0
-410 -411 -412 0
-410 411 412 0
-411 -413 0
-412 397 0
-412 398 0
-409 414 415 0
-414 416 417 0
-404 184 0
-416 32 0
-416 396 0
-417 396 0
-417 395 0
-415 32 0
-415 395 0
-330 418 0
-418 -419 -420 0
-418 419 420 0
-419 -62 -421 0
-419 62 421 0
-421 -422 -423 0
-421 422 423 0
-422 -424 0
-423 411 0
-423 412 0
-184 -425 0
-420 426 427 0
-426 428 429 0
-428 45 0
-428 410 0
-429 410 0
-429 409 0
-427 45 0
-427 409 0
-328 430 0
-430 431 0
-430 432 0
-431 433 0
-431 434 0
-433 435 0
-433 436 0
-435 437 0
-435 438 0
-425 -439 0
-437 440 0
-437 441 0
-440 442 0
-440 443 0
-442 444 0
-442 445 0
-444 -446 0
-446 447 0
-447 -94 -346 0
-447 94 346 0
-445 -448 0
-448 -449 -450 0
-448 449 450 0
-449 -104 -352 0
-449 104 352 0
-450 94 0
-450 346 0
-443 -451 0
-451 -452 -453 0
-451 452 453 0
-452 -114 -360 0
-452 114 360 0
-453 454 455 0
-454 456 457 0
-456 104 0
-456 352 0
-457 352 0
-457 450 0
-455 104 0
-455 450 0
-441 -458 0
-458 -459 -460 0
-458 459 460 0
-405 -461 462 0
-405 461 463 0
-459 -127 -372 0
-459 127 372 0
-460 464 465 0
-464 466 467 0
-466 114 0
-466 360 0
-467 360 0
-467 453 0
-465 114 0
-465 453 0
-438 -468 0
-468 -469 -470 0
-468 469 470 0
-469 -140 -384 0
-469 140 384 0
-470 471 472 0
-461 -473 0
-471 474 475 0
-474 127 0
-474 372 0
-475 372 0
-475 460 0
-472 127 0
-472 460 0
-436 -476 0
-476 -477 -478 0
-476 477 478 0
-477 -154 -396 0
-477 154 396 0
-478 479 480 0
-479 481 482 0
-481 140 0
-481 384 0
-473 483 0
-482 384 0
-482 470 0
-480 140 0
-480 470 0
-434 -484 0
-484 -485 -486 0
-484 485 486 0
-485 -165 -410 0
-485 165 410 0
-486 487 488 0
-487 489 490 0
-489 154 0
-489 396 0
-490 396 0
-490 478 0
-488 154 0
-488 478 0
-483 -4 -184 0
-483 4 184 0
-432 -491 0
-491 -492 -493 0
-491 492 493 0
-492 -176 -421 0
-492 176 421 0
-493 494 495 0
-494 496 497 0
-496 165 0
-496 410 0
-497 410 0
-497 486 0
-495 165 0
-495 486 0
-226 327 0
-220 -229 328 0
-220 229 0
-462 -498 69 0
-462 498 463 0
-212 -218 226 0
-212 218 0
-191 -499 500 0
-191 499 501 0
-499 502 0
-499 503 0
-502 504 0
-502 505 0
-504 506 0
-504 507 0
-506 508 0
-506 509 0
-508 510 0
-508 511 0
-510 512 0
-510 513 0
-512 514 0
-512 515 0
-514 206 0
-498 54 0
-498 516 0
-515 207 0
-513 208 0
-511 209 0
-509 13 0
-507 32 0
-505 45 0
-503 62 0
-500 -210 517 0
-500 210 518 0
-517 -224 519 0
-517 224 0
-519 -520 521 0
-519 520 220 0
-516 37 0
-516 522 0
-520 232 0
-520 523 0
-523 234 0
-523 524 0
-524 236 0
-524 525 0
-525 238 0
-525 526 0
-526 240 0
-526 527 0
-527 242 0
-527 528 0
-528 244 0
-528 529 0
-529 245 0
-521 530 0
-530 432 0
-530 531 0
-522 24 0
-522 532 0
-531 434 0
-531 533 0
-533 436 0
-533 534 0
-534 438 0
-534 535 0
-535 441 0
-535 536 0
-536 443 0
-536 537 0
-537 445 0
-537 538 0
-538 446 0
-518 -224 539 0
-518 224 0
-539 -520 521 0
-539 520 0
-501 -210 540 0
-501 210 541 0
-532 542 0
-532 543 0
-540 -224 544 0
-540 224 0
-544 -520 226 0
-544 520 220 0
-541 -224 545 0
-541 224 0
-545 -520 226 0
-545 520 0
-187 -189 546 0
-187 189 547 0
-546 -548 549 0
-546 548 550 0
-548 213 0
-549 -224 220 0
-549 224 0
-550 -218 551 0
-550 218 549 0
-551 -224 552 0
-551 224 553 0
-542 554 0
-542 555 0
-552 -556 225 0
-552 556 220 0
-556 557 0
-556 558 0
-557 559 0
-557 560 0
-559 561 0
-559 562 0
-561 563 0
-561 564 0
-563 565 0
-563 566 0
-565 567 0
-565 568 0
-567 569 0
-567 570 0
-569 -571 0
-571 572 0
-554 573 0
-554 574 0
-572 -575 -247 0
-572 575 247 0
-570 -576 0
-576 -577 -578 0
-576 577 578 0
-577 -579 -253 0
-577 579 253 0
-578 247 0
-578 575 0
-568 -580 0
-580 -581 -582 0
-580 581 582 0
-581 -583 -261 0
-581 583 261 0
-573 584 0
-573 585 0
-582 586 587 0
-586 588 589 0
-588 253 0
-588 579 0
-589 253 0
-589 578 0
-587 579 0
-587 578 0
-566 -590 0
-590 -591 -592 0
-590 591 592 0
-591 -593 -272 0
-591 593 272 0
-584 -594 0
-592 595 596 0
-595 597 598 0
-597 261 0
-597 583 0
-598 261 0
-598 582 0
-596 583 0
-596 582 0
-564 -599 0
-599 -600 -601 0
-599 600 601 0
-600 -602 -283 0
-600 602 283 0
-601 603 604 0
-594 605 0
-603 606 607 0
-606 272 0
-606 593 0
-607 272 0
-607 592 0
-604 593 0
-604 592 0
-562 -608 0
-608 -609 -610 0
-608 609 610 0
-609 -611 -294 0
-609 611 294 0
-610 612 613 0
-612 614 615 0
-605 -91 -616 0
-605 91 616 0
-614 283 0
-614 602 0
-615 283 0
-615 601 0
-613 602 0
-613 601 0
-560 -617 0
-617 -618 -619 0
-617 618 619 0
-618 -620 -305 0
-618 620 305 0
-619 621 622 0
-621 623 624 0
-623 294 0
-623 611 0
-616 -625 0
-624 294 0
-624 610 0
-622 611 0
-622 610 0
-558 -626 0
-626 -627 -628 0
-626 627 628 0
-627 -629 -316 0
-627 629 316 0
-628 630 631 0
-630 632 633 0
-632 305 0
-632 620 0
-633 305 0
-633 619 0
-625 -206 0
-631 620 0
-631 619 0
-553 -556 226 0
-553 556 0
-547 -499 634 0
-547 499 635 0
-634 -548 636 0
-634 548 517 0
-636 -224 637 0
-636 224 0
-637 -520 0
-637 520 220 0
-635 -548 636 0
-635 548 540 0
-183 -185 638 0
-183 185 639 0
-638 -499 640 0
-638 499 641 0
-640 -210 642 0
-640 210 643 0
-642 -218 644 0
-642 218 645 0
-644 -224 220 0
-644 224 646 0
-646 -229 647 0
-646 229 0
-647 -648 0
-647 648 328 0
-648 649 0
-648 650 0
-649 651 0
-649 652 0
-651 653 0
-651 654 0
-653 655 0
-653 656 0
-655 657 0
-655 658 0
-657 659 0
-657 660 0
-585 -661 0
-659 538 0
-659 662 0
-662 448 0
-660 451 0
-658 458 0
-656 468 0
-654 476 0
-652 484 0
-650 491 0
-645 -224 663 0
-645 224 664 0
-663 -229 665 0
-663 229 664 0
-661 -666 -667 0
-661 666 667 0
-665 648 328 0
-664 648 0
-643 -218 0
-643 218 664 0
-641 -210 668 0
-641 210 669 0
-668 -218 670 0
-668 218 549 0
-670 -671 226 0
-670 671 220 0
-671 672 0
-671 673 0
-672 674 0
-672 675 0
-674 676 0
-674 677 0
-676 678 0
-676 679 0
-666 -100 -680 0
-666 100 680 0
-678 681 0
-678 682 0
-681 683 0
-681 684 0
-683 529 0
-683 685 0
-685 250 0
-684 257 0
-682 269 0
-679 280 0
-677 291 0
-675 302 0
-673 313 0
-680 -686 -687 0
-680 686 687 0
-669 -218 688 0
-669 218 0
-688 -671 226 0
-688 671 0
-639 -499 689 0
-639 499 690 0
-689 -548 549 0
-689 548 691 0
-691 -218 549 0
-691 218 692 0
-692 -224 693 0
-692 224 694 0
-693 -556 663 0
-693 556 220 0
-694 -556 664 0
-694 556 0
-690 -548 549 0
-690 548 695 0
-695 -218 696 0
-695 218 549 0
-686 -207 0
-696 -224 670 0
-696 224 688 0
-72 -697 71 0
-72 697 0
-697 698 0
-697 699 0
-698 700 0
-698 701 0
-700 702 0
-700 703 0
-702 704 0
-702 705 0
-704 706 0
-704 707 0
-706 708 0
-706 709 0
-708 710 0
-708 711 0
-710 -712 0
-712 713 0
-713 -714 -92 0
-713 714 92 0
-711 -715 0
-715 -716 -717 0
-715 716 717 0
-716 -718 -101 0
-716 718 101 0
-717 92 0
-717 714 0
-709 -719 0
-719 -720 -721 0
-719 720 721 0
-687 625 0
-720 -722 -111 0
-720 722 111 0
-721 723 724 0
-723 725 726 0
-725 101 0
-725 718 0
-726 101 0
-726 717 0
-724 718 0
-724 717 0
-707 -727 0
-727 -728 -729 0
-727 728 729 0
-728 -730 -124 0
-728 730 124 0
-667 91 0
-667 616 0
-729 731 732 0
-731 733 734 0
-733 111 0
-733 722 0
-734 111 0
-734 721 0
-732 722 0
-732 721 0
-705 -735 0
-735 -736 -737 0
-735 736 737 0
-736 -738 -137 0
-736 738 137 0
-574 -739 0
-737 740 741 0
-740 742 743 0
-742 124 0
-742 730 0
-743 124 0
-743 729 0
-741 730 0
-741 729 0
-703 -744 0
-744 -745 -746 0
-744 745 746 0
-745 -747 -151 0
-745 747 151 0
-746 748 749 0
-739 -750 -751 0
-739 750 751 0
-748 752 753 0
-752 137 0
-752 738 0
-753 137 0
-753 737 0
-749 738 0
-749 737 0
-701 -754 0
-754 -755 -756 0
-754 755 756 0
-755 -757 -162 0
-755 757 162 0
-756 758 759 0
-758 760 761 0
-750 -110 -762 0
-750 110 762 0
-760 151 0
-760 747 0
-761 151 0
-761 746 0
-759 747 0
-759 746 0
-699 -763 0
-763 -764 -765 0
-763 764 765 0
-764 -766 -173 0
-764 766 173 0
-765 767 768 0
-767 769 770 0
-769 162 0
-769 757 0
-762 -771 -772 0
-762 771 772 0
-770 162 0
-770 756 0
-768 757 0
-768 756 0
-463 -70 71 0
-463 70 0
-406 -498 72 0
-406 498 0
-326 -404 463 0
-326 404 0
-49 -773 774 0
-49 773 775 0
-773 776 0
-773 777 0
-776 778 0
-776 779 0
-778 780 0
-778 781 0
-780 782 0
-780 783 0
-771 -208 0
-782 784 0
-782 785 0
-784 786 0
-784 787 0
-786 788 0
-786 789 0
-788 91 0
-789 100 0
-787 110 0
-785 20 0
-783 9 0
-781 28 0
-779 41 0
-2 -790 46 0
-2 790 791 0
-777 58 0
-774 -324 792 0
-774 324 793 0
-792 -461 794 0
-792 461 0
-794 -795 796 0
-794 795 406 0
-795 54 0
-795 797 0
-797 37 0
-797 798 0
-798 24 0
-798 799 0
-799 800 0
-799 543 0
-800 801 0
-800 555 0
-801 574 0
-801 802 0
-772 686 0
-772 687 0
-802 585 0
-802 803 0
-803 594 0
-796 -804 71 0
-796 804 0
-804 699 0
-804 805 0
-805 701 0
-805 806 0
-806 703 0
-806 807 0
-807 705 0
-807 808 0
-808 707 0
-808 809 0
-809 709 0
-809 810 0
-810 711 0
-810 811 0
-751 812 813 0
-811 712 0
-793 -461 814 0
-793 461 0
-814 -795 796 0
-814 795 0
-775 -324 815 0
-775 324 816 0
-815 -461 817 0
-815 461 0
-817 -795 462 0
-817 795 406 0
-816 -461 818 0
-816 461 0
-818 -795 463 0
-818 795 0
-791 -773 819 0
-791 773 820 0
-819 -324 821 0
-819 324 822 0
-812 823 824 0
-821 -404 825 0
-821 404 826 0
-825 -461 406 0
-825 461 827 0
-827 -498 828 0
-827 498 0
-828 -829 0
-828 829 72 0
-829 830 0
-829 831 0
-830 832 0
-830 833 0
-832 834 0
-832 835 0
-834 836 0
-834 837 0
-836 838 0
-836 839 0
-838 840 0
-838 841 0
-823 100 0
-823 680 0
-840 811 0
-840 842 0
-842 715 0
-841 719 0
-839 727 0
-837 735 0
-835 744 0
-833 754 0
-831 763 0
-826 -461 843 0
-826 461 844 0
-843 -498 845 0
-843 498 844 0
-824 680 0
-824 667 0
-845 -829 71 0
-845 829 72 0
-844 -829 71 0
-844 829 0
-822 -404 0
-822 404 844 0
-820 -324 846 0
-820 324 847 0
-846 -404 848 0
-846 404 849 0
-848 -461 850 0
-848 461 851 0
-850 -852 462 0
-850 852 406 0
-852 853 0
-852 854 0
-853 855 0
-853 856 0
-855 857 0
-855 858 0
-813 100 0
-813 667 0
-857 859 0
-857 860 0
-859 861 0
-859 862 0
-861 863 0
-861 864 0
-863 803 0
-863 865 0
-865 661 0
-864 739 0
-862 866 0
-860 6 0
-858 25 0
-856 38 0
-555 -866 0
-854 55 0
-851 -852 463 0
-851 852 406 0
-849 -461 406 0
-849 461 0
-847 -404 867 0
-847 404 0
-867 -852 463 0
-867 852 0
-3 -790 868 0
-3 790 869 0
-868 -47 870 0
-868 47 871 0
-870 -872 849 0
-870 872 873 0
-872 344 0
-873 -404 874 0
-873 404 849 0
-866 -875 -22 0
-866 875 22 0
-874 -461 876 0
-874 461 877 0
-876 -878 462 0
-876 878 406 0
-878 879 0
-878 880 0
-879 881 0
-879 882 0
-881 883 0
-881 884 0
-883 885 0
-883 886 0
-885 887 0
-885 888 0
-887 889 0
-887 890 0
-889 891 0
-889 892 0
-891 -893 0
-875 -20 -21 0
-875 20 21 0
-893 894 0
-894 -895 -616 0
-894 895 616 0
-892 -896 0
-896 -897 -898 0
-896 897 898 0
-897 -899 -680 0
-897 899 680 0
-898 616 0
-898 895 0
-890 -900 0
-900 -901 -902 0
-900 901 902 0
-790 -4 0
-21 -14 -15 0
-21 14 15 0
-901 -903 -762 0
-901 903 762 0
-902 904 905 0
-904 906 907 0
-906 680 0
-906 899 0
-907 680 0
-907 898 0
-905 899 0
-905 898 0
-888 -908 0
-908 -909 -910 0
-908 909 910 0
-909 -911 -21 0
-909 911 21 0
-14 -209 0
-910 912 913 0
-912 914 915 0
-914 762 0
-914 903 0
-915 762 0
-915 902 0
-913 903 0
-913 902 0
-886 -916 0
-916 -917 -918 0
-916 917 918 0
-917 -919 -10 0
-917 919 10 0
-918 920 921 0
-920 922 923 0
-922 21 0
-922 911 0
-923 21 0
-923 910 0
-921 911 0
-921 910 0
-884 -924 0
-924 -925 -926 0
-924 925 926 0
-925 -927 -29 0
-925 927 29 0
-926 928 929 0
-15 771 0
-15 772 0
-928 930 931 0
-930 10 0
-930 919 0
-931 10 0
-931 918 0
-929 919 0
-929 918 0
-882 -932 0
-932 -933 -934 0
-932 933 934 0
-933 -935 -42 0
-933 935 42 0
-934 936 937 0
-936 938 939 0
-22 940 941 0
-938 29 0
-938 927 0
-939 29 0
-939 926 0
-937 927 0
-937 926 0
-880 -942 0
-942 -943 -944 0
-942 943 944 0
-943 -945 -59 0
-943 945 59 0
-944 946 947 0
-946 948 949 0
-948 42 0
-948 935 0
-940 950 951 0
-949 42 0
-949 934 0
-947 935 0
-947 934 0
-877 -878 463 0
-877 878 0
-871 -773 952 0
-871 773 953 0
-952 -872 954 0
-952 872 792 0
-954 -461 955 0
-954 461 0
-955 -795 0
-955 795 406 0
-953 -872 954 0
-953 872 815 0
-869 -773 956 0
-869 773 957 0
-956 -872 849 0
-956 872 958 0
-950 110 0
-950 762 0
-958 -404 849 0
-958 404 959 0
-959 -461 960 0
-959 461 961 0
-960 -878 843 0
-960 878 406 0
-961 -878 844 0
-961 878 0
-957 -872 849 0
-957 872 962 0
-962 -404 963 0
-962 404 849 0
-963 -461 850 0
-963 461 867 0
-951 762 0
-951 751 0
-941 110 0
-941 751 0
-543 -6 0
4 5 0
6 -7 8 0
6 -8 7 0
7 -10 9 0
7 -9 10 0
10 -11 12 0
10 -12 11 0
11 13 0
12 -14 -15 0
8 -16 0
8 -17 0
16 -18 0
16 -19 0
18 -20 -21 0
19 -21 -22 0
5 23 0
17 -20 -22 0
24 25 0
25 -26 27 0
25 -27 26 0
26 -29 28 0
26 -28 29 0
29 -30 31 0
29 -31 30 0
30 32 0
31 -11 -12 0
27 -33 0
27 -34 0
33 -35 0
33 -36 0
35 -9 -10 0
36 -10 -8 0
34 -9 -8 0
37 38 0
38 -39 40 0
38 -40 39 0
39 -42 41 0
39 -41 42 0
42 -43 44 0
42 -44 43 0
43 45 0
44 -30 -31 0
46 -47 -48 0
46 -48 -49 0
46 47 -49 0
40 -50 0
40 -51 0
50 -52 0
50 -53 0
52 -28 -29 0
53 -29 -27 0
51 -28 -27 0
54 55 0
55 -56 57 0
55 -57 56 0
56 -59 58 0
56 -58 59 0
59 -60 61 0
59 -61 60 0
60 62 0
47 -63 -64 0
61 -43 -44 0
57 -65 0
57 -66 0
65 -67 0
65 -68 0
67 -41 -42 0
68 -42 -40 0
66 -41 -40 0
69 -70 -71 0
69 -71 -72 0
69 70 -72 0
70 -73 -74 0
73 -75 -76 0
63 -77 -78 0
75 -79 -80 0
79 -81 -82 0
81 -83 -84 0
83 -85 -86 0
85 -87 -88 0
87 -89 0
89 -90 0
90 -92 91 0
90 -91 92 0
92 93 0
93 94 0
77 -95 -96 0
88 -97 0
97 -98 99 0
97 -99 98 0
98 -101 100 0
98 -100 101 0
101 -102 103 0
101 -103 102 0
102 104 0
103 -93 0
99 -91 -92 0
86 -105 0
95 -106 -107 0
105 -108 109 0
105 -109 108 0
108 -111 110 0
108 -110 111 0
111 -112 113 0
111 -113 112 0
112 114 0
113 -102 -103 0
109 -115 0
109 -116 0
115 -117 0
115 -118 0
117 -100 -101 0
118 -101 -99 0
106 -119 -120 0
116 -100 -99 0
84 -121 0
121 -122 123 0
121 -123 122 0
122 -124 20 0
122 -20 124 0
124 -125 126 0
124 -126 125 0
125 127 0
126 -112 -113 0
123 -128 0
123 -129 0
128 -130 0
128 -131 0
119 -132 -133 0
130 -110 -111 0
131 -111 -109 0
129 -110 -109 0
82 -134 0
134 -135 136 0
134 -136 135 0
135 -137 9 0
135 -9 137 0
137 -138 139 0
137 -139 138 0
138 140 0
139 -125 -126 0
1 141 0
132 -142 -143 0
136 -144 0
136 -145 0
144 -146 0
144 -147 0
146 -20 -124 0
147 -124 -123 0
145 -20 -123 0
80 -148 0
148 -149 150 0
148 -150 149 0
149 -151 28 0
149 -28 151 0
151 -152 153 0
151 -153 152 0
152 154 0
142 91 0
153 -138 -139 0
150 -155 0
150 -156 0
155 -157 0
155 -158 0
157 -9 -137 0
158 -137 -136 0
156 -9 -136 0
76 -159 0
159 -160 161 0
159 -161 160 0
160 -162 41 0
160 -41 162 0
162 -163 164 0
162 -164 163 0
163 165 0
164 -152 -153 0
161 -166 0
161 -167 0
166 -168 0
166 -169 0
168 -28 -151 0
169 -151 -150 0
167 -28 -150 0
74 -170 0
143 100 0
170 -171 172 0
170 -172 171 0
171 -173 58 0
171 -58 173 0
173 -174 175 0
173 -175 174 0
174 176 0
175 -163 -164 0
172 -177 0
172 -178 0
177 -179 0
177 -180 0
179 -41 -162 0
180 -162 -161 0
178 -41 -161 0
71 -181 -182 0
71 -182 -183 0
71 181 -183 0
181 184 0
182 -185 -186 0
182 -186 -187 0
182 185 -187 0
185 188 0
186 -189 -190 0
186 -190 -191 0
186 189 -191 0
189 -192 -193 0
192 -194 -195 0
194 -196 -197 0
196 -198 -199 0
133 110 0
198 -200 -201 0
200 -202 -203 0
202 -204 -205 0
204 206 0
205 207 0
203 208 0
201 209 0
199 13 0
197 32 0
195 45 0
193 62 0
190 -210 -211 0
190 -211 -212 0
190 210 -212 0
210 213 0
213 -214 0
214 -215 188 0
214 -188 215 0
215 216 0
216 217 0
211 -218 -219 0
211 -219 -220 0
211 218 -220 0
218 -221 0
120 20 0
221 222 0
222 223 0
219 -224 -225 0
219 -225 -226 0
219 224 -226 0
224 227 0
227 -228 0
228 -221 184 0
228 -184 221 0
225 -229 -230 0
225 -230 -226 0
225 229 -226 0
229 -231 -232 0
231 -233 -234 0
233 -235 -236 0
235 -237 -238 0
237 -239 -240 0
239 -241 -242 0
241 -243 -244 0
243 245 0
245 -246 0
246 -247 206 0
246 -206 247 0
247 248 0
248 249 0
107 9 0
244 250 0
250 -251 252 0
250 -252 251 0
251 -253 207 0
251 -207 253 0
253 -254 255 0
253 -255 254 0
254 256 0
255 -248 0
252 -206 -247 0
242 257 0
141 258 0
257 -259 260 0
257 -260 259 0
259 -261 208 0
259 -208 261 0
261 -262 263 0
261 -263 262 0
262 264 0
263 -254 -255 0
260 -265 0
260 -266 0
265 -267 0
265 -268 0
267 -207 -253 0
268 -253 -252 0
96 28 0
266 -207 -252 0
240 269 0
269 -270 271 0
269 -271 270 0
270 -272 209 0
270 -209 272 0
272 -273 274 0
272 -274 273 0
273 275 0
274 -262 -263 0
271 -276 0
271 -277 0
276 -278 0
276 -279 0
278 -208 -261 0
279 -261 -260 0
277 -208 -260 0
238 280 0
280 -281 282 0
280 -282 281 0
281 -13 283 0
281 -283 13 0
283 -284 285 0
283 -285 284 0
284 286 0
285 -273 -274 0
78 41 0
282 -287 0
282 -288 0
287 -289 0
287 -290 0
289 -209 -272 0
290 -272 -271 0
288 -209 -271 0
236 291 0
291 -292 293 0
291 -293 292 0
292 -32 294 0
292 -294 32 0
294 -295 296 0
294 -296 295 0
295 297 0
296 -284 -285 0
293 -298 0
293 -299 0
298 -300 0
298 -301 0
300 -13 -283 0
301 -283 -282 0
299 -13 -282 0
234 302 0
302 -303 304 0
302 -304 303 0
303 -45 305 0
303 -305 45 0
64 58 0
305 -306 307 0
305 -307 306 0
306 308 0
307 -295 -296 0
304 -309 0
304 -310 0
309 -311 0
309 -312 0
311 -32 -294 0
312 -294 -293 0
310 -32 -293 0
232 313 0
313 -314 315 0
313 -315 314 0
314 -62 316 0
314 -316 62 0
316 -317 318 0
316 -318 317 0
317 319 0
318 -306 -307 0
315 -320 0
315 -321 0
320 -322 0
320 -323 0
322 -45 -305 0
323 -305 -304 0
48 -324 -325 0
48 -325 -326 0
48 324 -326 0
321 -45 -304 0
230 -327 0
230 -328 0
327 -329 -330 0
329 -331 -332 0
331 -333 -334 0
333 -335 -336 0
335 -337 -338 0
337 -339 -340 0
339 -341 -342 0
341 -343 0
324 344 0
343 -345 0
345 -346 206 0
345 -206 346 0
346 347 0
347 348 0
342 -349 0
349 -350 351 0
349 -351 350 0
350 -352 207 0
350 -207 352 0
352 -353 354 0
352 -354 353 0
353 355 0
344 -356 0
354 -347 0
351 -206 -346 0
340 -357 0
357 -358 359 0
357 -359 358 0
358 -360 208 0
358 -208 360 0
360 -361 362 0
360 -362 361 0
361 363 0
362 -353 -354 0
258 364 0
356 -141 188 0
356 -188 141 0
359 -365 0
359 -366 0
365 -367 0
365 -368 0
367 -207 -352 0
368 -352 -351 0
366 -207 -351 0
338 -369 0
369 -370 371 0
369 -371 370 0
370 -372 209 0
370 -209 372 0
372 -373 374 0
372 -374 373 0
373 375 0
188 376 0
374 -361 -362 0
371 -377 0
371 -378 0
377 -379 0
377 -380 0
379 -208 -360 0
380 -360 -359 0
378 -208 -359 0
336 -381 0
381 -382 383 0
381 -383 382 0
382 -13 384 0
382 -384 13 0
376 385 0
384 -386 387 0
384 -387 386 0
386 388 0
387 -373 -374 0
383 -389 0
383 -390 0
389 -391 0
389 -392 0
391 -209 -372 0
392 -372 -371 0
390 -209 -371 0
334 -393 0
393 -394 395 0
393 -395 394 0
394 -32 396 0
394 -396 32 0
396 -397 398 0
396 -398 397 0
397 399 0
398 -386 -387 0
395 -400 0
395 -401 0
400 -402 0
400 -403 0
402 -13 -384 0
403 -384 -383 0
325 -404 -405 0
325 -405 -406 0
325 404 -406 0
401 -13 -383 0
332 -407 0
407 -408 409 0
407 -409 408 0
408 -45 410 0
408 -410 45 0
410 -411 412 0
410 -412 411 0
411 413 0
412 -397 -398 0
409 -414 0
409 -415 0
414 -416 0
414 -417 0
404 -184 0
416 -32 -396 0
417 -396 -395 0
415 -32 -395 0
330 -418 0
418 -419 420 0
418 -420 419 0
419 -62 421 0
419 -421 62 0
421 -422 423 0
421 -423 422 0
422 424 0
423 -411 -412 0
184 425 0
420 -426 0
420 -427 0
426 -428 0
426 -429 0
428 -45 -410 0
429 -410 -409 0
427 -45 -409 0
328 -430 0
430 -431 -432 0
431 -433 -434 0
433 -435 -436 0
435 -437 -438 0
425 439 0
437 -440 -441 0
440 -442 -443 0
442 -444 -445 0
444 446 0
446 -447 0
447 -94 346 0
447 -346 94 0
445 448 0
448 -449 450 0
448 -450 449 0
449 -104 352 0
449 -352 104 0
450 -94 -346 0
443 451 0
451 -452 453 0
451 -453 452 0
452 -114 360 0
452 -360 114 0
453 -454 0
453 -455 0
454 -456 0
454 -457 0
456 -104 -352 0
457 -352 -450 0
455 -104 -450 0
441 458 0
458 -459 460 0
458 -460 459 0
405 -461 -462 0
405 -462 -463 0
405 461 -463 0
459 -127 372 0
459 -372 127 0
460 -464 0
460 -465 0
464 -466 0
464 -467 0
466 -114 -360 0
467 -360 -453 0
465 -114 -453 0
438 468 0
468 -469 470 0
468 -470 469 0
469 -140 384 0
469 -384 140 0
470 -471 0
470 -472 0
461 473 0
471 -474 0
471 -475 0
474 -127 -372 0
475 -372 -460 0
472 -127 -460 0
436 476 0
476 -477 478 0
476 -478 477 0
477 -154 396 0
477 -396 154 0
478 -479 0
478 -480 0
479 -481 0
479 -482 0
481 -140 -384 0
473 -483 0
482 -384 -470 0
480 -140 -470 0
434 484 0
484 -485 486 0
484 -486 485 0
485 -165 410 0
485 -410 165 0
486 -487 0
486 -488 0
487 -489 0
487 -490 0
489 -154 -396 0
490 -396 -478 0
488 -154 -478 0
483 -4 184 0
483 -184 4 0
432 491 0
491 -492 493 0
491 -493 492 0
492 -176 421 0
492 -421 176 0
493 -494 0
493 -495 0
494 -496 0
494 -497 0
496 -165 -410 0
497 -410 -486 0
495 -165 -486 0
226 -327 0
220 -229 -328 0
462 -69 -463 0
462 -498 -69 0
462 498 -463 0
212 -218 -226 0
191 -499 -500 0
191 -500 -501 0
191 499 -501 0
499 -502 -503 0
502 -504 -505 0
504 -506 -507 0
506 -508 -509 0
508 -510 -511 0
510 -512 -513 0
512 -514 -515 0
514 -206 0
498 -516 -54 0
515 -207 0
513 -208 0
511 -209 0
509 -13 0
507 -32 0
505 -45 0
503 -62 0
500 -210 -517 0
500 -517 -518 0
500 210 -518 0
517 -224 -519 0
519 -520 -521 0
519 -521 -220 0
519 520 -220 0
516 -522 -37 0
520 -523 -232 0
523 -524 -234 0
524 -525 -236 0
525 -526 -238 0
526 -527 -240 0
527 -528 -242 0
528 -529 -244 0
529 -245 0
521 -530 0
530 -531 -432 0
522 -532 -24 0
531 -533 -434 0
533 -534 -436 0
534 -535 -438 0
535 -536 -441 0
536 -537 -443 0
537 -538 -445 0
538 -446 0
518 -224 -539 0
539 -520 -521 0
501 -210 -540 0
501 -540 -541 0
501 210 -541 0
532 -542 -543 0
540 -224 -544 0
544 -226 -220 0
544 -520 -226 0
544 520 -220 0
541 -224 -545 0
545 -520 -226 0
187 -189 -546 0
187 -546 -547 0
187 189 -547 0
546 -548 -549 0
546 -549 -550 0
546 548 -550 0
548 -213 0
549 -224 -220 0
550 -218 -551 0
550 -551 -549 0
550 218 -549 0
551 -224 -552 0
551 -552 -553 0
551 224 -553 0
542 -554 -555 0
552 -225 -220 0
552 -556 -225 0
552 556 -220 0
556 -557 -558 0
557 -559 -560 0
559 -561 -562 0
561 -563 -564 0
563 -565 -566 0
565 -567 -568 0
567 -569 -570 0
569 571 0
571 -572 0
554 -573 -574 0
572 -247 575 0
572 -575 247 0
570 576 0
576 -577 578 0
576 -578 577 0
577 -253 579 0
577 -579 253 0
578 -575 -247 0
568 580 0
580 -581 582 0
580 -582 581 0
581 -261 583 0
581 -583 261 0
573 -584 -585 0
582 -586 0
582 -587 0
586 -588 0
586 -589 0
588 -579 -253 0
589 -253 -578 0
587 -579 -578 0
566 590 0
590 -591 592 0
590 -592 591 0
591 -272 593 0
591 -593 272 0
584 594 0
592 -595 0
592 -596 0
595 -597 0
595 -598 0
597 -583 -261 0
598 -261 -582 0
596 -583 -582 0
564 599 0
599 -600 601 0
599 -601 600 0
600 -283 602 0
600 -602 283 0
601 -603 0
601 -604 0
594 -605 0
603 -606 0
603 -607 0
606 -593 -272 0
607 -272 -592 0
604 -593 -592 0
562 608 0
608 -609 610 0
608 -610 609 0
609 -294 611 0
609 -611 294 0
610 -612 0
610 -613 0
612 -614 0
612 -615 0
605 -91 616 0
605 -616 91 0
614 -602 -283 0
615 -283 -601 0
613 -602 -601 0
560 617 0
617 -618 619 0
617 -619 618 0
618 -305 620 0
618 -620 305 0
619 -621 0
619 -622 0
621 -623 0
621 -624 0
623 -611 -294 0
616 625 0
624 -294 -610 0
622 -611 -610 0
558 626 0
626 -627 628 0
626 -628 627 0
627 -316 629 0
627 -629 316 0
628 -630 0
628 -631 0
630 -632 0
630 -633 0
632 -620 -305 0
633 -305 -619 0
625 206 0
631 -620 -619 0
553 -556 -226 0
547 -499 -634 0
547 -634 -635 0
547 499 -635 0
634 -548 -636 0
634 -636 -517 0
634 548 -517 0
636 -224 -637 0
637 520 -220 0
635 -548 -636 0
635 -636 -540 0
635 548 -540 0
183 -185 -638 0
183 -638 -639 0
183 185 -639 0
638 -499 -640 0
638 -640 -641 0
638 499 -641 0
640 -210 -642 0
640 -642 -643 0
640 210 -643 0
642 -218 -644 0
642 -644 -645 0
642 218 -645 0
644 -224 -220 0
644 -220 -646 0
644 224 -646 0
646 -229 -647 0
647 648 -328 0
648 -649 -650 0
649 -651 -652 0
651 -653 -654 0
653 -655 -656 0
655 -657 -658 0
657 -659 -660 0
585 661 0
659 -538 -662 0
662 -448 0
660 -451 0
658 -458 0
656 -468 0
654 -476 0
652 -484 0
650 -491 0
645 -224 -663 0
645 -663 -664 0
645 224 -664 0
663 -229 -665 0
663 -665 -664 0
663 229 -664 0
661 -666 667 0
661 -667 666 0
665 -328 0
665 -648 0
664 -648 0
643 218 -664 0
641 -210 -668 0
641 -668 -669 0
641 210 -669 0
668 -218 -670 0
668 -670 -549 0
668 218 -549 0
670 -226 -220 0
670 -671 -226 0
670 671 -220 0
671 -672 -673 0
672 -674 -675 0
674 -676 -677 0
676 -678 -679 0
666 -100 680 0
666 -680 100 0
678 -681 -682 0
681 -683 -684 0
683 -529 -685 0
685 -250 0
684 -257 0
682 -269 0
679 -280 0
677 -291 0
675 -302 0
673 -313 0
680 -686 687 0
680 -687 686 0
669 -218 -688 0
688 -671 -226 0
639 -499 -689 0
639 -689 -690 0
639 499 -690 0
689 -548 -549 0
689 -549 -691 0
689 548 -691 0
691 -218 -549 0
691 -549 -692 0
691 218 -692 0
692 -224 -693 0
692 -693 -694 0
692 224 -694 0
693 -556 -663 0
693 -663 -220 0
693 556 -220 0
694 -556 -664 0
690 -548 -549 0
690 -549 -695 0
690 548 -695 0
695 -218 -696 0
695 -696 -549 0
695 218 -549 0
686 207 0
696 -224 -670 0
696 -670 -688 0
696 224 -688 0
72 -697 -71 0
697 -698 -699 0
698 -700 -701 0
700 -702 -703 0
702 -704 -705 0
704 -706 -707 0
706 -708 -709 0
708 -710 -711 0
710 712 0
712 -713 0
713 -92 714 0
713 -714 92 0
711 715 0
715 -716 717 0
715 -717 716 0
716 -101 718 0
716 -718 101 0
717 -714 -92 0
709 719 0
719 -720 721 0
719 -721 720 0
687 -625 0
720 -111 722 0
720 -722 111 0
721 -723 0
721 -724 0
723 -725 0
723 -726 0
725 -718 -101 0
726 -101 -717 0
724 -718 -717 0
707 727 0
727 -728 729 0
727 -729 728 0
728 -124 730 0
728 -730 124 0
667 -91 -616 0
729 -731 0
729 -732 0
731 -733 0
731 -734 0
733 -722 -111 0
734 -111 -721 0
732 -722 -721 0
705 735 0
735 -736 737 0
735 -737 736 0
736 -137 738 0
736 -738 137 0
574 739 0
737 -740 0
737 -741 0
740 -742 0
740 -743 0
742 -730 -124 0
743 -124 -729 0
741 -730 -729 0
703 744 0
744 -745 746 0
744 -746 745 0
745 -151 747 0
745 -747 151 0
746 -748 0
746 -749 0
739 -750 751 0
739 -751 750 0
748 -752 0
748 -753 0
752 -738 -137 0
753 -137 -737 0
749 -738 -737 0
701 754 0
754 -755 756 0
754 -756 755 0
755 -162 757 0
755 -757 162 0
756 -758 0
756 -759 0
758 -760 0
758 -761 0
750 -110 762 0
750 -762 110 0
760 -747 -151 0
761 -151 -746 0
759 -747 -746 0
699 763 0
763 -764 765 0
763 -765 764 0
764 -173 766 0
764 -766 173 0
765 -767 0
765 -768 0
767 -769 0
767 -770 0
769 -757 -162 0
762 -771 772 0
762 -772 771 0
770 -162 -756 0
768 -757 -756 0
463 -70 -71 0
406 -498 -72 0
326 -404 -463 0
49 -773 -774 0
49 -774 -775 0
49 773 -775 0
773 -776 -777 0
776 -778 -779 0
778 -780 -781 0
780 -782 -783 0
771 208 0
782 -784 -785 0
784 -786 -787 0
786 -788 -789 0
788 -91 0
789 -100 0
787 -110 0
785 -20 0
783 -9 0
781 -28 0
779 -41 0
2 -46 -791 0
2 -790 -46 0
2 790 -791 0
777 -58 0
774 -324 -792 0
774 -792 -793 0
774 324 -793 0
792 -461 -794 0
794 -795 -796 0
794 -796 -406 0
794 795 -406 0
795 -797 -54 0
797 -798 -37 0
798 -799 -24 0
799 -800 -543 0
800 -801 -555 0
801 -802 -574 0
772 -686 -687 0
802 -803 -585 0
803 -594 0
796 -804 -71 0
804 -805 -699 0
805 -806 -701 0
806 -807 -703 0
807 -808 -705 0
808 -809 -707 0
809 -810 -709 0
810 -811 -711 0
751 -812 0
751 -813 0
811 -712 0
793 -461 -814 0
814 -795 -796 0
775 -324 -815 0
775 -815 -816 0
775 324 -816 0
815 -461 -817 0
817 -462 -406 0
817 -795 -462 0
817 795 -406 0
816 -461 -818 0
818 -795 -463 0
791 -773 -819 0
791 -819 -820 0
791 773 -820 0
819 -324 -821 0
819 -821 -822 0
819 324 -822 0
812 -823 0
812 -824 0
821 -404 -825 0
821 -825 -826 0
821 404 -826 0
825 -461 -406 0
825 -406 -827 0
825 461 -827 0
827 -498 -828 0
828 829 -72 0
829 -830 -831 0
830 -832 -833 0
832 -834 -835 0
834 -836 -837 0
836 -838 -839 0
838 -840 -841 0
823 -100 -680 0
840 -811 -842 0
842 -715 0
841 -719 0
839 -727 0
837 -735 0
835 -744 0
833 -754 0
831 -763 0
826 -461 -843 0
826 -843 -844 0
826 461 -844 0
843 -498 -845 0
843 -845 -844 0
843 498 -844 0
824 -680 -667 0
845 -71 -72 0
845 -829 -71 0
845 829 -72 0
844 -829 -71 0
822 404 -844 0
820 -324 -846 0
820 -846 -847 0
820 324 -847 0
846 -404 -848 0
846 -848 -849 0
846 404 -849 0
848 -461 -850 0
848 -850 -851 0
848 461 -851 0
850 -462 -406 0
850 -852 -462 0
850 852 -406 0
852 -853 -854 0
853 -855 -856 0
855 -857 -858 0
813 -100 -667 0
857 -859 -860 0
859 -861 -862 0
861 -863 -864 0
863 -803 -865 0
865 -661 0
864 -739 0
862 -866 0
860 -6 0
858 -25 0
856 -38 0
555 866 0
854 -55 0
851 -463 -406 0
851 -852 -463 0
851 852 -406 0
849 -461 -406 0
847 -404 -867 0
867 -852 -463 0
3 -868 -869 0
3 -790 -868 0
3 790 -869 0
868 -47 -870 0
868 -870 -871 0
868 47 -871 0
870 -849 -873 0
870 -872 -849 0
870 872 -873 0
872 -344 0
873 -404 -874 0
873 -874 -849 0
873 404 -849 0
866 -875 22 0
866 -22 875 0
874 -461 -876 0
874 -876 -877 0
874 461 -877 0
876 -462 -406 0
876 -878 -462 0
876 878 -406 0
878 -879 -880 0
879 -881 -882 0
881 -883 -884 0
883 -885 -886 0
885 -887 -888 0
887 -889 -890 0
889 -891 -892 0
891 893 0
875 -20 21 0
875 -21 20 0
893 -894 0
894 -616 895 0
894 -895 616 0
892 896 0
896 -897 898 0
896 -898 897 0
897 -680 899 0
897 -899 680 0
898 -895 -616 0
890 900 0
900 -901 902 0
900 -902 901 0
790 4 0
21 -14 15 0
21 -15 14 0
901 -762 903 0
901 -903 762 0
902 -904 0
902 -905 0
904 -906 0
904 -907 0
906 -899 -680 0
907 -680 -898 0
905 -899 -898 0
888 908 0
908 -909 910 0
908 -910 909 0
909 -21 911 0
909 -911 21 0
14 209 0
910 -912 0
910 -913 0
912 -914 0
912 -915 0
914 -903 -762 0
915 -762 -902 0
913 -903 -902 0
886 916 0
916 -917 918 0
916 -918 917 0
917 -10 919 0
917 -919 10 0
918 -920 0
918 -921 0
920 -922 0
920 -923 0
922 -911 -21 0
923 -21 -910 0
921 -911 -910 0
884 924 0
924 -925 926 0
924 -926 925 0
925 -29 927 0
925 -927 29 0
926 -928 0
926 -929 0
15 -771 -772 0
928 -930 0
928 -931 0
930 -919 -10 0
931 -10 -918 0
929 -919 -918 0
882 932 0
932 -933 934 0
932 -934 933 0
933 -42 935 0
933 -935 42 0
934 -936 0
934 -937 0
936 -938 0
936 -939 0
22 -940 0
22 -941 0
938 -927 -29 0
939 -29 -926 0
937 -927 -926 0
880 942 0
942 -943 944 0
942 -944 943 0
943 -59 945 0
943 -945 59 0
944 -946 0
944 -947 0
946 -948 0
946 -949 0
948 -935 -42 0
940 -950 0
940 -951 0
949 -42 -934 0
947 -935 -934 0
877 -878 -463 0
871 -773 -952 0
871 -952 -953 0
871 773 -953 0
952 -872 -954 0
952 -954 -792 0
952 872 -792 0
954 -461 -955 0
955 795 -406 0
953 -872 -954 0
953 -954 -815 0
953 872 -815 0
869 -773 -956 0
869 -956 -957 0
869 773 -957 0
956 -849 -958 0
956 -872 -849 0
956 872 -958 0
950 -110 -762 0
958 -404 -849 0
958 -849 -959 0
958 404 -959 0
959 -461 -960 0
959 -960 -961 0
959 461 -961 0
960 -843 -406 0
960 -878 -843 0
960 878 -406 0
961 -878 -844 0
957 -849 -962 0
957 -872 -849 0
957 872 -962 0
962 -404 -963 0
962 -963 -849 0
962 404 -849 0
963 -461 -850 0
963 -850 -867 0
963 461 -867 0
951 -762 -751 0
941 -110 -751 0
543 6 0